2618 2121 2 4 5 9 12 19 23 36 50 52 56 73 75 78 101 107 108 110 112 113 120 126 129 131 132 137 142 148 152 162 167 174 175 176 178 179 181 186 191 205 207 209 214 215 217 222 224 227 231 235 236 239 240 243 248 251 253 255 258 265 271 272 274 278 281 282 291 292 293 294 295 297 298 299 300 303 307 317 322 331 335 336 337 338 341 345 351 353 354 359 361 375 377 384 387 390 392 395 398 403 406 408 410 415 417 424 426 427 434 436 440 442 444 455 466 471 477 481 482 484 486 487 495 497 499 